
Gurobi 10.0.1 (win64) logging started Fri Jun  2 12:25:31 2023

Set parameter LogFile to value "results/log/Fattahi_setup_13_modified_deadline.log"
Gurobi Optimizer version 10.0.1 build v10.0.1rc0 (win64)

CPU model: AMD Ryzen 7 3700X 8-Core Processor, instruction set [SSE2|AVX|AVX2]
Thread count: 8 physical cores, 16 logical processors, using up to 16 threads

Optimize a model with 564 rows, 469 columns and 2165 nonzeros
Model fingerprint: 0x2530fb2e
Model has 1 quadratic constraint
Variable types: 0 continuous, 469 integer (420 binary)
Coefficient statistics:
  Matrix range     [1e+00, 1e+09]
  QMatrix range    [1e+00, 1e+00]
  QLMatrix range   [1e+00, 2e+02]
  Objective range  [1e+00, 1e+00]
  Bounds range     [1e+00, 1e+00]
  RHS range        [1e+00, 3e+09]
Warning: Model contains large matrix coefficients
Warning: Model contains large rhs
         Consider reformulating model or setting NumericFocus parameter
         to avoid numerical issues.
Presolve removed 127 rows and 283 columns
Presolve time: 0.01s
Presolved: 470 rows, 234 columns, 1979 nonzeros
Presolved model has 32 SOS constraint(s)
Variable types: 0 continuous, 234 integer (153 binary)

Root relaxation: objective 1.582000e+03, 83 iterations, 0.00 seconds (0.00 work units)

    Nodes    |    Current Node    |     Objective Bounds      |     Work
 Expl Unexpl |  Obj  Depth IntInf | Incumbent    BestBd   Gap | It/Node Time

     0     0 1582.00006    0   47          - 1582.00006      -     -    0s
     0     0 1582.00008    0   60          - 1582.00008      -     -    0s
H    0     0                    3910.0000000 1582.00008  59.5%     -    0s
H    0     0                    3683.0000000 1582.00008  57.0%     -    0s
     0     0 1596.50501    0   63 3683.00000 1596.50501  56.7%     -    0s
     0     0 1596.50501    0   63 3683.00000 1596.50501  56.7%     -    0s
H    0     0                    3628.0000000 1596.50501  56.0%     -    0s
H    0     0                    3429.0000000 1630.52365  52.4%     -    0s
     0     0 1630.52365    0   56 3429.00000 1630.52365  52.4%     -    0s
H    0     0                    3352.0000000 1630.52365  51.4%     -    0s
     0     0 1639.49098    0   58 3352.00000 1639.49098  51.1%     -    0s
     0     0 1639.49098    0   58 3352.00000 1639.49098  51.1%     -    0s
     0     0 1639.49098    0   43 3352.00000 1639.49098  51.1%     -    0s
H    0     0                    2902.0000000 1639.49098  43.5%     -    0s
     0     0 1639.49098    0   42 2902.00000 1639.49098  43.5%     -    0s
     0     0 1639.49098    0   45 2902.00000 1639.49098  43.5%     -    0s
H    0     0                    2767.0000000 1639.49098  40.7%     -    0s
H    0     0                    2698.0000000 1639.49098  39.2%     -    0s
     0     0 1647.58384    0   44 2698.00000 1647.58384  38.9%     -    0s
     0     0 1647.58384    0   48 2698.00000 1647.58384  38.9%     -    0s
H    0     0                    2510.0000000 1647.58384  34.4%     -    0s
     0     0 1647.58384    0   46 2510.00000 1647.58384  34.4%     -    0s
     0     0 1647.58384    0   46 2510.00000 1647.58384  34.4%     -    0s
     0     0 1649.11457    0   46 2510.00000 1649.11457  34.3%     -    0s
     0     0 1649.11457    0   46 2510.00000 1649.11457  34.3%     -    0s
H    0     0                    2476.0000000 1649.11457  33.4%     -    0s
     0     0 1649.11457    0   46 2476.00000 1649.11457  33.4%     -    0s
     0     0 1649.11457    0   44 2476.00000 1649.11457  33.4%     -    0s
H    0     0                    2338.0000000 1649.11457  29.5%     -    0s
     0     2 1649.11457    0   27 2338.00000 1649.11457  29.5%     -    0s
H  419   266                    2234.0000000 1657.32946  25.8%   7.7    0s
H  591   340                    2232.0000000 1658.84496  25.7%   6.6    0s
H  604   340                    2214.0000000 1658.84496  25.1%   6.5    0s
H 3459  1273                    2213.0000000 1748.55851  21.0%   5.2    0s
H 3460  1211                    2202.0000000 1748.55851  20.6%   5.2    0s
H 3468  1154                    2201.0000000 1748.55851  20.6%   5.2    0s
H 3476  1102                    2196.0000000 1748.55851  20.4%   5.2    0s
H 3479  1048                    2143.0000000 1748.55851  18.4%   5.2    0s
H 3528  1038                    2141.0000000 1748.55851  18.3%   6.2    0s
H 3529   988                    2135.0000000 1748.55851  18.1%   6.2    0s
H 3531   939                    2088.0000000 1748.55851  16.3%   6.2    0s
H 3572   924                    2087.0000000 1748.55851  16.2%   6.3    0s
H 3575   879                    2078.0000000 1748.55851  15.9%   6.3    0s
 105844 14270 infeasible   44      2078.00000 1821.00000  12.4%   7.1    5s

Cutting planes:
  Learned: 1
  Gomory: 3
  Implied bound: 2
  MIR: 1
  Flow cover: 7
  Zero half: 1

Explored 202260 nodes (1443085 simplex iterations) in 8.85 seconds (5.62 work units)
Thread count was 16 (of 16 available processors)

Solution count 10: 2078 2087 2088 ... 2213

Optimal solution found (tolerance 1.00e-04)
Best objective 2.078000000000e+03, best bound 2.078000000000e+03, gap 0.0000%
Warning: variable name "y[job:0, stage:0, machine:1]" has a space
Warning: constraint name "precedence between 1,0 to 0,0 if x_[j,l,h,z,i]=1" has a space
Warning: to let Gurobi read it back, use rlp format
Warning: variable name "y[job:0, stage:0, machine:1]" has a space
Warning: constraint name "precedence between 1,0 to 0,0 if x_[j,l,h,z,i]=1" has a space
Warning: default variable names used to write mps file
Warning: default constraint names used to write mps file
Warning: variable name "y[job:0, stage:0, machine:1]" has a space
Warning: default variable names used to write solution file
